41490.2
41490.2
41490.2
41490.2
41077.9
41077.9
41077.9
41077.9
40360.7
40360.7
40360.7
39080.4
37748.8
37748.8
37748.8
37748.8
37748.8
37513.2
36863.4
36863.4
36863.4
36863.4
36863.4
36532.9
36532.9
36532.9
36532.9
36532.9
35602.3
35602.3
35602.3
35127.3
35127.3
35127.3
34950.7
34950.7
34950.7
34909.6
34447.3
34447.3
33895.3
33895.3
33895.3
33895.3
33895.3
33895.3
33895.3
33895.3
33760.8
33200.2
33200.2
33200.2
33200.2
32921.1
32921.1
32921.1
32921.1
32707.4
32707.4
32707.4
32703.6
32189
32189
32189
32189
32189
32189
32048.8
31962.3
31962.3
31962.3
31066.2
31066.2
30773.4
30773.4
30738.2
30738.2
30553
30553
30553
30553
30553
29896.8
29896.8
29896.8
29896.8
29896.8
29896.8
29896.8
29495.9
29495.9
29495.9
29495.9
29495.9
29319.7
29319.7
29188.1
29188.1
29188.1
29188.1
